WARNING: for repeatability, setting FPU to use double precision
============================[ Problem Statistics ]=============================
|                                                                             |
|  Number of variables:        224518                                         |
|  Number of clauses:          511056                                         |
|  Parse time:                   0.19 s                                       |
|                                                                             |
============================[ Search Statistics ]==============================
| Conflicts |          ORIGINAL         |          LEARNT          | Progress |
|           |    Vars  Clauses Literals |    Limit  Clauses Lit/Cl |          |
===============================================================================
|       100 |  122508   488098  1097904 |   178969      100     18 | 45.435 % |
|       250 |  122508   488098  1097904 |   196866      250     22 | 45.435 % |
|       475 |  122508   488098  1097904 |   216552      475     23 | 45.435 % |
|       812 |  122508   488098  1097904 |   238208      812     22 | 45.435 % |
===============================================================================
restarts              : 7
conflicts             : 950            (1055 /sec)
decisions             : 20153          (0.00 % random) (22391 /sec)
propagations          : 4173875        (4637350 /sec)
conflict literals     : 20129          (2.45 % deleted)
Memory used           : 57.00 MB
CPU time              : 0.900056 s

SATISFIABLE
